Version identifier: 20.1.0.0 | 2020-11-10 | 9bedb6d68
CPXPARAM_Simplex_Tolerances_Feasibility          1.0000000000000001e-09
CPXPARAM_TimeLimit                               1e+20
CPXPARAM_MIP_Tolerances_Integrality              0
Lazy constraint(s) or lazy constraint/branch callback is present.
    Disabling dual reductions (CPX_PARAM_REDUCE) in presolve.
    Disabling presolve reductions that prevent crushing forms (CPX_PARAM_PREREFORM).
Tried aggregator 1 time.
MIP Presolve eliminated 0 rows and 22 columns.
Reduced MIP has 44 rows, 924 columns, and 924 nonzeros.
Reduced MIP has 462 binaries, 462 generals, 0 SOSs, and 0 indicators.
Presolve time = 0.26 sec. (0.39 ticks)
Probing time = 0.09 sec. (0.94 ticks)
Tried aggregator 1 time.
Reduced MIP has 44 rows, 924 columns, and 924 nonzeros.
Reduced MIP has 462 binaries, 462 generals, 0 SOSs, and 0 indicators.
Presolve time = 0.01 sec. (0.38 ticks)
Warning: Lazy constraints are present for the setting with smaller integrality
    tolerance than feasibility tolerance.
Probing time = 0.04 sec. (0.94 ticks)
Clique table members: 44.
Problem contains 484 lazy constraints.
MIP emphasis: balance optimality and feasibility.
MIP search method: dynamic search.
Parallel mode: deterministic, using up to 6 threads.
Root relaxation solution time = 0.31 sec. (0.31 ticks)

        Nodes                                         Cuts/
   Node  Left     Objective  IInf  Best Integer    Best Bound    ItCnt     Gap

      0     0     5616.6943     6                   5616.6943       25         
      0     0     5616.6943     6                     Cuts: 4       26         
      0     0     5616.6943     9                     Cuts: 4       28         
      0     0     5616.6943     9                 ZeroHalf: 2       30         
